Ni  H                                   
   1.00000000000000     
    16.0000000000000000    0.0000000000000000    0.0000000000000000
     0.0000000000000000   16.0000000000000000    0.0000000000000000
     0.0000000000000000    0.0000000000000000   16.0000000000000000
   Ni   H 
    30     2
Direct
  0.2424797788498011  0.4657328282140768  0.3936534873399885
  0.4766454062380551  0.4699990874099251  0.6770486118963361
  0.5653876873573632  0.6763494005258545  0.3837219546099008
  0.5728194549231508  0.2656859013604461  0.3850370149015817
  0.3378570651649068  0.4677059961050057  0.6234706902168532
  0.6595594240271787  0.6204202009015242  0.4914959077176847
  0.6648065309869737  0.3253892457440885  0.4924063228717770
  0.3270366481139997  0.5734850331642608  0.3449120596958814
  0.3313877314153416  0.3613075379139191  0.3451760322706586
  0.4024788638443524  0.4681166730329321  0.2521178591181907
  0.5375406360134529  0.2643365074173504  0.5313797454372252
  0.5303813728385510  0.6769605546465332  0.5304793943692037
  0.6578345937729116  0.5488528575186679  0.3587352411666342
  0.6594141042577760  0.3958365829363873  0.3588770914382579
  0.4227166490438705  0.5951999165116362  0.5946343058758674
  0.4269740550460335  0.3431404058343100  0.5945921607566255
  0.4680946232819992  0.5944678443220783  0.3077217525590044
  0.4735209645826139  0.3452091502658934  0.3088378171209265
  0.4273153334329152  0.3011357953092385  0.4439671434065031
  0.4215647392685485  0.6359945010605037  0.4434674521136062
  0.3201259442420333  0.5428350118710202  0.4941544383806316
  0.3233559786476423  0.3920150282190153  0.4941088290743851
  0.5442548092144908  0.4714498556533572  0.3067744008476069
  0.5723544174275399  0.5465650970604793  0.5899447852916653
  0.5746602578921813  0.3961768465626431  0.5902638190600648
  0.6598672796798588  0.4727286783352111  0.4895453135240857
  0.4522898436221825  0.4697735190646560  0.5347653472988613
  0.5366700981371383  0.5475416324005815  0.4402431931390502
  0.5388494238124930  0.3938555377384368  0.4408632640267258
  0.4125397216975268  0.4691614447691662  0.3937877675663539
  0.4863613282421959  0.7443221406565395  0.7500827172754436
  0.4995156549249136  0.7762486324742578  0.7819895946324102
 
  0.00000000E+00  0.00000000E+00  0.00000000E+00
  0.00000000E+00  0.00000000E+00  0.00000000E+00
  0.00000000E+00  0.00000000E+00  0.00000000E+00
  0.00000000E+00  0.00000000E+00  0.00000000E+00
  0.00000000E+00  0.00000000E+00  0.00000000E+00
  0.00000000E+00  0.00000000E+00  0.00000000E+00
  0.00000000E+00  0.00000000E+00  0.00000000E+00
  0.00000000E+00  0.00000000E+00  0.00000000E+00
  0.00000000E+00  0.00000000E+00  0.00000000E+00
  0.00000000E+00  0.00000000E+00  0.00000000E+00
  0.00000000E+00  0.00000000E+00  0.00000000E+00
  0.00000000E+00  0.00000000E+00  0.00000000E+00
  0.00000000E+00  0.00000000E+00  0.00000000E+00
  0.00000000E+00  0.00000000E+00  0.00000000E+00
  0.00000000E+00  0.00000000E+00  0.00000000E+00
  0.00000000E+00  0.00000000E+00  0.00000000E+00
  0.00000000E+00  0.00000000E+00  0.00000000E+00
  0.00000000E+00  0.00000000E+00  0.00000000E+00
  0.00000000E+00  0.00000000E+00  0.00000000E+00
  0.00000000E+00  0.00000000E+00  0.00000000E+00
  0.00000000E+00  0.00000000E+00  0.00000000E+00
  0.00000000E+00  0.00000000E+00  0.00000000E+00
  0.00000000E+00  0.00000000E+00  0.00000000E+00
  0.00000000E+00  0.00000000E+00  0.00000000E+00
  0.00000000E+00  0.00000000E+00  0.00000000E+00
  0.00000000E+00  0.00000000E+00  0.00000000E+00
  0.00000000E+00  0.00000000E+00  0.00000000E+00
  0.00000000E+00  0.00000000E+00  0.00000000E+00
  0.00000000E+00  0.00000000E+00  0.00000000E+00
  0.00000000E+00  0.00000000E+00  0.00000000E+00
  0.00000000E+00  0.00000000E+00  0.00000000E+00
  0.00000000E+00  0.00000000E+00  0.00000000E+00
