Ni  H                                   
   1.00000000000000     
    16.0000000000000000    0.0000000000000000    0.0000000000000000
     0.0000000000000000   16.0000000000000000    0.0000000000000000
     0.0000000000000000    0.0000000000000000   16.0000000000000000
   Ni   H 
    30     2
Direct
  0.2433071676802820  0.4644183060256377  0.3918491570505231
  0.4725012566021265  0.4635855774404876  0.6773195242039857
  0.5673355646368692  0.6736653467390340  0.3771591782075570
  0.5717953800506261  0.2638183084819814  0.3857656257732490
  0.3358972637124638  0.4677982935916858  0.6207304245145083
  0.6600275294443160  0.6204364101738026  0.4868068571561608
  0.6623352457289087  0.3263234746050819  0.4915179177819584
  0.3255471782730814  0.5731253423065927  0.3435049712648758
  0.3324276640421042  0.3601768153655741  0.3424986797986009
  0.4016006588355370  0.4663311845540563  0.2510286370426596
  0.5355276665111539  0.2645408030943309  0.5318906152669032
  0.5310463646438721  0.6788136909909176  0.5221083623210810
  0.6585289301341716  0.5471458143564945  0.3562278907499172
  0.6570032342101207  0.3964657389168068  0.3585889357108178
  0.4259478558722601  0.5970663426833082  0.6009147258766038
  0.4249261266627327  0.3429940309693666  0.5917299618527317
  0.4660534295016561  0.5939613890095300  0.3044310907465704
  0.4750667796277367  0.3445697321344224  0.3078118165724648
  0.4265674791943581  0.2978023595682820  0.4412527233426525
  0.4211912359967335  0.6339926739880730  0.4405601132112345
  0.3204366083040989  0.5439549878514754  0.4944133026521516
  0.3243992838850715  0.3928311297528597  0.4913800186147836
  0.5436370490841516  0.4724194634595472  0.3039628573250941
  0.5709353617252884  0.5510307935432915  0.5942188619330674
  0.5719711632035496  0.3977037910225194  0.5883894567223962
  0.6563248469261129  0.4742037684421004  0.4906150127338513
  0.4516055455328412  0.4719600589737575  0.5334923177333759
  0.5370201344467054  0.5467024891128176  0.4382049908655504
  0.5358919271662191  0.3930458486013665  0.4392099944367068
  0.4121232588778398  0.4696698405766012  0.3923557293997611
  0.5094399116705698  0.6612136129715473  0.6179633673873477
  0.4996065228161680  0.5596357056965446  0.6788187567509791
 
  0.00000000E+00  0.00000000E+00  0.00000000E+00
  0.00000000E+00  0.00000000E+00  0.00000000E+00
  0.00000000E+00  0.00000000E+00  0.00000000E+00
  0.00000000E+00  0.00000000E+00  0.00000000E+00
  0.00000000E+00  0.00000000E+00  0.00000000E+00
  0.00000000E+00  0.00000000E+00  0.00000000E+00
  0.00000000E+00  0.00000000E+00  0.00000000E+00
  0.00000000E+00  0.00000000E+00  0.00000000E+00
  0.00000000E+00  0.00000000E+00  0.00000000E+00
  0.00000000E+00  0.00000000E+00  0.00000000E+00
  0.00000000E+00  0.00000000E+00  0.00000000E+00
  0.00000000E+00  0.00000000E+00  0.00000000E+00
  0.00000000E+00  0.00000000E+00  0.00000000E+00
  0.00000000E+00  0.00000000E+00  0.00000000E+00
  0.00000000E+00  0.00000000E+00  0.00000000E+00
  0.00000000E+00  0.00000000E+00  0.00000000E+00
  0.00000000E+00  0.00000000E+00  0.00000000E+00
  0.00000000E+00  0.00000000E+00  0.00000000E+00
  0.00000000E+00  0.00000000E+00  0.00000000E+00
  0.00000000E+00  0.00000000E+00  0.00000000E+00
  0.00000000E+00  0.00000000E+00  0.00000000E+00
  0.00000000E+00  0.00000000E+00  0.00000000E+00
  0.00000000E+00  0.00000000E+00  0.00000000E+00
  0.00000000E+00  0.00000000E+00  0.00000000E+00
  0.00000000E+00  0.00000000E+00  0.00000000E+00
  0.00000000E+00  0.00000000E+00  0.00000000E+00
  0.00000000E+00  0.00000000E+00  0.00000000E+00
  0.00000000E+00  0.00000000E+00  0.00000000E+00
  0.00000000E+00  0.00000000E+00  0.00000000E+00
  0.00000000E+00  0.00000000E+00  0.00000000E+00
  0.00000000E+00  0.00000000E+00  0.00000000E+00
  0.00000000E+00  0.00000000E+00  0.00000000E+00
