Ni  H                                   
   1.00000000000000     
    16.0000000000000000    0.0000000000000000    0.0000000000000000
     0.0000000000000000   16.0000000000000000    0.0000000000000000
     0.0000000000000000    0.0000000000000000   16.0000000000000000
   Ni   H 
    30     2
Direct
  0.2521908692815966  0.4670262085981598  0.3949011198846243
  0.4820226324616645  0.4634576185028558  0.6804108399625105
  0.5737480332760351  0.6716333651216333  0.3897586909807601
  0.5676543601322863  0.2597182936232043  0.3848745330987394
  0.3425831128092049  0.4623508054062082  0.6286676115445657
  0.6672774198920315  0.6128934985665477  0.4937586306201664
  0.6624254632167909  0.3193751379464657  0.4850387196969237
  0.3261852868996008  0.5855328570855733  0.3592101224067602
  0.3375778083230594  0.3613480071480436  0.3470060039153947
  0.3977792842746941  0.4765433742868544  0.2595635187120545
  0.5380048740529885  0.2573814067841818  0.5321804653602452
  0.5415220053689958  0.6738814691389652  0.5372132468407080
  0.6635918766343050  0.5444717605399565  0.3593472631128762
  0.6460207573984018  0.3932334331041871  0.3527365549633444
  0.4313481314581804  0.5940613078180109  0.6101254026542209
  0.4324575491986106  0.3409612219996252  0.5955006522742787
  0.4635432001796255  0.6054361895575481  0.3163663965719650
  0.4801129935340574  0.3541188700209433  0.3115527601241221
  0.4282426423606351  0.2935175656566263  0.4432324075942891
  0.4275759071509769  0.6340750534462052  0.4581037398628406
  0.3215854477136372  0.5426593458665064  0.5051855398759258
  0.3308845478698364  0.3919610258926908  0.4960480988542311
  0.5408288214253052  0.4853196268496163  0.3047832611407674
  0.5800596054099824  0.5409113162133774  0.5946157119676303
  0.5783059772641040  0.3890925560339895  0.5901372590594326
  0.6619453836581976  0.4655636910322536  0.4893956783342006
  0.4557777001836242  0.4717226116460709  0.5391568395457383
  0.5435671610701361  0.5428925627925596  0.4427867201726206
  0.5345330904737206  0.3903262883658491  0.4443851957425516
  0.4131332384553709  0.4762700372446105  0.3993284161151496
  0.4365092014767047  0.6858010677845583  0.5569698315271863
  0.5129230920956469  0.5638594946761193  0.6770157181081721
 
  0.00000000E+00  0.00000000E+00  0.00000000E+00
  0.00000000E+00  0.00000000E+00  0.00000000E+00
  0.00000000E+00  0.00000000E+00  0.00000000E+00
  0.00000000E+00  0.00000000E+00  0.00000000E+00
  0.00000000E+00  0.00000000E+00  0.00000000E+00
  0.00000000E+00  0.00000000E+00  0.00000000E+00
  0.00000000E+00  0.00000000E+00  0.00000000E+00
  0.00000000E+00  0.00000000E+00  0.00000000E+00
  0.00000000E+00  0.00000000E+00  0.00000000E+00
  0.00000000E+00  0.00000000E+00  0.00000000E+00
  0.00000000E+00  0.00000000E+00  0.00000000E+00
  0.00000000E+00  0.00000000E+00  0.00000000E+00
  0.00000000E+00  0.00000000E+00  0.00000000E+00
  0.00000000E+00  0.00000000E+00  0.00000000E+00
  0.00000000E+00  0.00000000E+00  0.00000000E+00
  0.00000000E+00  0.00000000E+00  0.00000000E+00
  0.00000000E+00  0.00000000E+00  0.00000000E+00
  0.00000000E+00  0.00000000E+00  0.00000000E+00
  0.00000000E+00  0.00000000E+00  0.00000000E+00
  0.00000000E+00  0.00000000E+00  0.00000000E+00
  0.00000000E+00  0.00000000E+00  0.00000000E+00
  0.00000000E+00  0.00000000E+00  0.00000000E+00
  0.00000000E+00  0.00000000E+00  0.00000000E+00
  0.00000000E+00  0.00000000E+00  0.00000000E+00
  0.00000000E+00  0.00000000E+00  0.00000000E+00
  0.00000000E+00  0.00000000E+00  0.00000000E+00
  0.00000000E+00  0.00000000E+00  0.00000000E+00
  0.00000000E+00  0.00000000E+00  0.00000000E+00
  0.00000000E+00  0.00000000E+00  0.00000000E+00
  0.00000000E+00  0.00000000E+00  0.00000000E+00
  0.00000000E+00  0.00000000E+00  0.00000000E+00
  0.00000000E+00  0.00000000E+00  0.00000000E+00
