Ni  H 
 1.0000000000000000
    16.0000000000000000    0.0000000000000000    0.0000000000000000
     0.0000000000000000   16.0000000000000000    0.0000000000000000
     0.0000000000000000    0.0000000000000000   16.0000000000000000
 Ni  H  
  30   2
Cartesian
  3.8727700000000000  7.4519000000000002  6.2972900000000003
  7.6263600000000000  7.5193700000000003 10.8359199999999998
  9.0478799999999993 10.8237600000000000  6.1379900000000003
  9.1698100000000000  4.2487199999999996  6.1599000000000004
  5.4029699999999998  7.4826899999999998  9.9770400000000006
 10.5566200000000006  9.9298199999999994  7.8646500000000001
 10.6439900000000005  5.2043799999999996  7.8812699999999998
  5.2279999999999998  9.1790500000000002  5.5170599999999999
  5.2983000000000002  5.7796500000000002  5.5211499999999996
  6.4411699999999996  7.4894499999999997  4.0305000000000000
  8.6000999999999994  4.2262399999999998  8.5025300000000001
  8.4850300000000001 10.8338300000000007  8.4876199999999997
 10.5297800000000006  8.7832100000000004  5.7386900000000001
 10.5547699999999995  6.3296599999999996  5.7409200000000000
  6.7630299999999997  9.5241100000000003  9.5161599999999993
  6.8293299999999997  5.4879400000000000  9.5154899999999998
  7.4895600000000000  9.5128000000000004  4.9223800000000004
  7.5763600000000002  5.5225799999999996  4.9406100000000004
  6.8338999999999999  4.8140299999999998  7.1018100000000004
  6.7407800000000000 10.1806300000000007  7.0934900000000001
  5.1187399999999998  8.6881799999999991  7.9079300000000003
  5.1726099999999997  6.2715399999999999  7.9081599999999996
  8.7096999999999998  7.5433199999999996  4.9088200000000004
  9.1627500000000008  8.7462400000000002  9.4418000000000006
  9.1972600000000000  6.3351400000000000  9.4471600000000002
 10.5613299999999999  7.5634399999999999  7.8315900000000003
  7.2361599999999999  7.5168699999999999  8.5557800000000004
  8.5857200000000002  8.7642100000000003  7.0408799999999996
  8.6210599999999999  6.2991000000000001  7.0526099999999996
  6.5969400000000000  7.5063300000000002  6.3008499999999996
  8.0312199999999994  9.9949100000000008  9.8063000000000002
  7.7644099999999998  9.4293499999999995 10.2032000000000007
