Ni  H                                   
   1.00000000000000     
    16.0000000000000000    0.0000000000000000    0.0000000000000000
     0.0000000000000000   16.0000000000000000    0.0000000000000000
     0.0000000000000000    0.0000000000000000   16.0000000000000000
   Ni   H 
    30     2
Direct
  0.2522767981462180  0.4669915315732567  0.3949232522372420
  0.4820546497381513  0.4634421073703232  0.6804466960096301
  0.5737734817199936  0.6714731506031784  0.3896164076932035
  0.5676249768530951  0.2597626727726825  0.3849173132060154
  0.3426007176950417  0.4623341259123339  0.6286982581697756
  0.6673609338105732  0.6128548807294029  0.4937370733115239
  0.6624350012810735  0.3193824717027544  0.4850606018559536
  0.3261011349714419  0.5855861240438478  0.3591846911584496
  0.3375862577425400  0.3612917555062879  0.3470225956108974
  0.3976926430445744  0.4765389392712636  0.2595164325237587
  0.5379996591153968  0.2573806188838620  0.5322725755734256
  0.5414689879247980  0.6737731277119183  0.5371246052871107
  0.6636378044181654  0.5443843288481222  0.3593496682898074
  0.6458392140579372  0.3932392434276046  0.3527335166989814
  0.4314218447693201  0.5941240984868831  0.6100852493595421
  0.4325009068229840  0.3409711417033481  0.5955479487879960
  0.4633833871475417  0.6055709950184026  0.3161628293535904
  0.4801519079999095  0.3543299551779445  0.3115975506014987
  0.4282772749869407  0.2934608719021312  0.4432026488381557
  0.4275693969905827  0.6339456189255868  0.4579921470398023
  0.3216321331498547  0.5426502652601879  0.5052080410456976
  0.3309623574092761  0.3919246885978706  0.4960772192877634
  0.5407936218849688  0.4855393441072839  0.3047422867409502
  0.5800509532481415  0.5408966038975277  0.5946462630144720
  0.5783114293140357  0.3890848527148064  0.5901608796599777
  0.6619578360331431  0.4655559414956311  0.4894652469905561
  0.4558102816231542  0.4717784882588208  0.5391416525857288
  0.5436098070539083  0.5428438623029862  0.4427784149813472
  0.5345111371698446  0.3903060594378565  0.4445258811567993
  0.4131709658392619  0.4763399068193758  0.3993608718208388
  0.4363685003257084  0.6858392419572881  0.5569488620411868
  0.5129814727124328  0.5638000543292296  0.6771092696933152
 
  0.00000000E+00  0.00000000E+00  0.00000000E+00
  0.00000000E+00  0.00000000E+00  0.00000000E+00
  0.00000000E+00  0.00000000E+00  0.00000000E+00
  0.00000000E+00  0.00000000E+00  0.00000000E+00
  0.00000000E+00  0.00000000E+00  0.00000000E+00
  0.00000000E+00  0.00000000E+00  0.00000000E+00
  0.00000000E+00  0.00000000E+00  0.00000000E+00
  0.00000000E+00  0.00000000E+00  0.00000000E+00
  0.00000000E+00  0.00000000E+00  0.00000000E+00
  0.00000000E+00  0.00000000E+00  0.00000000E+00
  0.00000000E+00  0.00000000E+00  0.00000000E+00
  0.00000000E+00  0.00000000E+00  0.00000000E+00
  0.00000000E+00  0.00000000E+00  0.00000000E+00
  0.00000000E+00  0.00000000E+00  0.00000000E+00
  0.00000000E+00  0.00000000E+00  0.00000000E+00
  0.00000000E+00  0.00000000E+00  0.00000000E+00
  0.00000000E+00  0.00000000E+00  0.00000000E+00
  0.00000000E+00  0.00000000E+00  0.00000000E+00
  0.00000000E+00  0.00000000E+00  0.00000000E+00
  0.00000000E+00  0.00000000E+00  0.00000000E+00
  0.00000000E+00  0.00000000E+00  0.00000000E+00
  0.00000000E+00  0.00000000E+00  0.00000000E+00
  0.00000000E+00  0.00000000E+00  0.00000000E+00
  0.00000000E+00  0.00000000E+00  0.00000000E+00
  0.00000000E+00  0.00000000E+00  0.00000000E+00
  0.00000000E+00  0.00000000E+00  0.00000000E+00
  0.00000000E+00  0.00000000E+00  0.00000000E+00
  0.00000000E+00  0.00000000E+00  0.00000000E+00
  0.00000000E+00  0.00000000E+00  0.00000000E+00
  0.00000000E+00  0.00000000E+00  0.00000000E+00
  0.00000000E+00  0.00000000E+00  0.00000000E+00
  0.00000000E+00  0.00000000E+00  0.00000000E+00
