Ni  H 
 1.0000000000000000
    16.0000000000000000    0.0000000000000000    0.0000000000000000
     0.0000000000000000   16.0000000000000000    0.0000000000000000
     0.0000000000000000    0.0000000000000000   16.0000000000000000
 Ni  H  
  30   2
Cartesian
  3.9231775799999999  7.4630685600000000  6.2977624800000003
  7.6115719999999998  7.4396959300000001 10.8639925900000005
  9.0468350799999993 10.8593507000000002  6.2160870099999999
  9.1441852600000004  4.2368583500000003  6.1652627000000004
  5.4065327200000004  7.4769289800000003  9.9939856599999999
 10.5746758500000002  9.9262639099999994  7.8554676600000004
 10.6039733799999993  5.2093267100000000  7.8659140399999998
  5.2644628899999999  9.2077456299999998  5.5613634300000001
  5.3224957200000000  5.7718949899999998  5.5342626599999996
  6.4309047599999998  7.5112595700000000  4.0587978900000001
  8.5885348799999992  4.2147484500000001  8.5197384799999991
  8.5130145899999992 10.8407914200000004  8.5446971000000005
 10.4983762699999996  8.7983176600000004  5.7357018399999999
 10.5452458300000007  6.3634811400000002  5.7422030299999998
  6.7821838699999999  9.5135977799999996  9.6057163400000007
  6.8314260999999998  5.4766954200000004  9.5284333700000001
  7.5249132999999997  9.5152933500000003  4.9759777800000000
  7.5764058900000002  5.5151475699999999  4.9264048899999997
  6.8490075600000004  4.8115048800000002  7.1074751500000000
  6.7678348499999998 10.1841677599999993  7.1461005599999998
  5.1544960599999996  8.6909842200000007  7.9491183899999998
  5.1869067800000002  6.2758852899999997  7.9127021299999996
  8.7070581899999997  7.5337919299999996  4.8871557499999998
  9.1656936800000004  8.7625423100000006  9.5106498899999998
  9.1812649400000002  6.3418362799999999  9.4417363299999995
 10.5332425799999996  7.5755347400000002  7.8624527100000003
  7.2479470600000004  7.5163606999999999  8.5792760900000005
  8.5964038699999996  8.7588471499999994  7.0645068899999997
  8.6185868600000006  6.3033744900000004  7.0407885500000003
  6.6132038900000003  7.5060878999999998  6.3181182099999997
  8.2385995199999993 10.2666754800000000 10.0917320799999999
  8.1015177900000008  9.2102938499999993 10.7661295300000006
