Ni  H                                   
   1.00000000000000     
    16.0000000000000000    0.0000000000000000    0.0000000000000000
     0.0000000000000000   16.0000000000000000    0.0000000000000000
     0.0000000000000000    0.0000000000000000   16.0000000000000000
   Ni   H 
    30     2
Direct
  0.2574104085801029  0.4721784773362241  0.3866349095473176
  0.4738929010642058  0.4639860574872930  0.6846182159859286
  0.5603429443546105  0.6871453558031532  0.4052745746404386
  0.5691921572591732  0.2686464975490152  0.3880658914395544
  0.3363032239070579  0.4661853861609485  0.6301199062963160
  0.6546630055664910  0.6243119987894852  0.4995025461176125
  0.6597140115043213  0.3291735609976189  0.4922088185828765
  0.3304426091771629  0.5911428854549876  0.3556598992962169
  0.3337202260684363  0.3568029331676834  0.3501231502645373
  0.3945076055908014  0.4791319194343702  0.2605526504406182
  0.5364986175185681  0.2628694457500891  0.5361330711882125
  0.5275795322475316  0.6806687338219316  0.5543381850920021
  0.6501686007478676  0.5586561135709016  0.3630831194852597
  0.6564153285163857  0.4056350378173428  0.3605419630008319
  0.4192425576054593  0.5947903355507430  0.6111979313863440
  0.4255487365597491  0.3426454062478429  0.6001894737351183
  0.4708516948754881  0.6022195521618596  0.3216272162795474
  0.4726444534804629  0.3507109602653218  0.3112730682013037
  0.4292675381620228  0.3053424480197240  0.4498033542224516
  0.4227638722475107  0.6393576269150527  0.4602750321681934
  0.3189832100020291  0.5447252884443646  0.5029138753010588
  0.3216053991451551  0.3948603349513760  0.4979146337427279
  0.5394263794150856  0.4772107954049845  0.3073546951078499
  0.5706549192031649  0.5446547288109929  0.6005405800450812
  0.5701531174416414  0.3964159860710325  0.5925768152594908
  0.6584858917456914  0.4769354964811260  0.4951970438025703
  0.4486824131894997  0.4708251398633062  0.5396499906604810
  0.5358570882902236  0.5502667082830573  0.4494067282752540
  0.5385748880062962  0.3988278745448249  0.4429486955781444
  0.4127902415614783  0.4733858262478014  0.3988720063428611
  0.5571432684300146  0.6371009485847282  0.6402797281849719
  0.4418835760362749  0.6961895837607830  0.6043777465788731
 
  0.00000000E+00  0.00000000E+00  0.00000000E+00
  0.00000000E+00  0.00000000E+00  0.00000000E+00
  0.00000000E+00  0.00000000E+00  0.00000000E+00
  0.00000000E+00  0.00000000E+00  0.00000000E+00
  0.00000000E+00  0.00000000E+00  0.00000000E+00
  0.00000000E+00  0.00000000E+00  0.00000000E+00
  0.00000000E+00  0.00000000E+00  0.00000000E+00
  0.00000000E+00  0.00000000E+00  0.00000000E+00
  0.00000000E+00  0.00000000E+00  0.00000000E+00
  0.00000000E+00  0.00000000E+00  0.00000000E+00
  0.00000000E+00  0.00000000E+00  0.00000000E+00
  0.00000000E+00  0.00000000E+00  0.00000000E+00
  0.00000000E+00  0.00000000E+00  0.00000000E+00
  0.00000000E+00  0.00000000E+00  0.00000000E+00
  0.00000000E+00  0.00000000E+00  0.00000000E+00
  0.00000000E+00  0.00000000E+00  0.00000000E+00
  0.00000000E+00  0.00000000E+00  0.00000000E+00
  0.00000000E+00  0.00000000E+00  0.00000000E+00
  0.00000000E+00  0.00000000E+00  0.00000000E+00
  0.00000000E+00  0.00000000E+00  0.00000000E+00
  0.00000000E+00  0.00000000E+00  0.00000000E+00
  0.00000000E+00  0.00000000E+00  0.00000000E+00
  0.00000000E+00  0.00000000E+00  0.00000000E+00
  0.00000000E+00  0.00000000E+00  0.00000000E+00
  0.00000000E+00  0.00000000E+00  0.00000000E+00
  0.00000000E+00  0.00000000E+00  0.00000000E+00
  0.00000000E+00  0.00000000E+00  0.00000000E+00
  0.00000000E+00  0.00000000E+00  0.00000000E+00
  0.00000000E+00  0.00000000E+00  0.00000000E+00
  0.00000000E+00  0.00000000E+00  0.00000000E+00
  0.00000000E+00  0.00000000E+00  0.00000000E+00
  0.00000000E+00  0.00000000E+00  0.00000000E+00
