Ni  H 
 1.0000000000000000
    16.0000000000000000    0.0000000000000000    0.0000000000000000
     0.0000000000000000   16.0000000000000000    0.0000000000000000
     0.0000000000000000    0.0000000000000000   16.0000000000000000
 Ni  H  
  30   2
Cartesian
  3.9825239400000001  7.4745765100000003  6.1164000800000000
  7.5320479400000000  7.5333765799999997 10.9765251599999996
  9.0415887099999992 10.9579349700000002  6.2572496600000003
  9.2225723300000002  4.2873036899999999  6.1922790299999999
  5.2771074100000002  7.4779531700000001 10.1012334500000005
 10.5795403500000003 10.0690066100000006  7.9696282199999997
 10.7121275600000008  5.2224008599999996  7.9157065600000003
  5.1420504100000004  9.4134721700000004  5.4940138599999999
  5.2505614400000002  5.6129555800000004  5.4704599299999996
  6.1824083600000002  7.5559913999999999  4.0920336099999997
  8.6345897899999997  4.1978777400000000  8.5807861299999999
  8.4473999200000005 10.9586157199999992  8.6415228800000001
 10.5294475500000004  8.9447777300000002  5.7960731299999999
 10.6091428800000003  6.3902286000000004  5.7548686599999996
  6.6865811800000001  9.5629608200000007  9.6523694300000002
  6.7901859599999996  5.4573303900000001  9.6470319700000005
  7.4608232699999997  9.6007348799999992  4.9989684299999997
  7.5760112800000003  5.5771872800000004  4.9610520899999999
  6.8336014100000000  4.8925584100000004  7.1783903400000000
  6.6730904000000004 10.2428706599999995  7.2072738000000003
  5.0235773899999998  8.7046069300000006  7.9696790499999999
  5.0692661499999998  6.2776081499999998  7.9592628699999999
  8.6897821600000000  7.6213814500000003  4.9667303000000000
  9.0883665100000002  8.7960750700000006  9.5395335699999997
  9.1492240400000000  6.3626138499999998  9.5208311699999992
 10.5927750500000002  7.6460995499999997  7.9148148400000000
  7.1582545000000000  7.5212584400000004  8.6010469500000006
  8.5593648200000008  8.8104168000000005  7.1679359199999997
  8.6490140899999997  6.3951477299999997  7.1334793699999999
  6.5565493300000002  7.5434214199999996  6.3638490799999996
  8.6839949599999997 10.3686221399999994 10.8078228599999999
  7.5429955900000003 11.2106258000000008 10.5432358599999993
