Ni  H                                   
   1.00000000000000     
    16.0000000000000000    0.0000000000000000    0.0000000000000000
     0.0000000000000000   16.0000000000000000    0.0000000000000000
     0.0000000000000000    0.0000000000000000   16.0000000000000000
   Ni   H 
    30     2
Direct
  0.2437864137462656  0.4625520295595434  0.3852298546296459
  0.4700728834835748  0.4687740339847937  0.6746757750143266
  0.5615234976270828  0.6763006266966615  0.3834666380713206
  0.5717984178124368  0.2648959883474594  0.3847248920131235
  0.3324130571298868  0.4653696241469443  0.6188225159459609
  0.6546762891094792  0.6205436730201848  0.4914561978233539
  0.6619433344661890  0.3260731301803711  0.4922356045146420
  0.3265192430412051  0.5727257071508629  0.3403898697323566
  0.3322335690825916  0.3566548459296484  0.3408835881785651
  0.4012563067215268  0.4662360079588495  0.2489636130667174
  0.5354603877552057  0.2634914276563446  0.5309251189787626
  0.5250038727267776  0.6766832350579957  0.5295883320104682
  0.6543953679997347  0.5493264137985346  0.3583110331548410
  0.6580801314263582  0.3965498267595993  0.3586596608814009
  0.4166655952837109  0.5935045757784211  0.5915254327143314
  0.4230719368111270  0.3415867676647487  0.5921027699463492
  0.4675158279019292  0.5930747279045803  0.3053205399195273
  0.4740811975197436  0.3433102917922932  0.3059923649494919
  0.4269010552354065  0.2999432988907024  0.4418045482241107
  0.4183838164078442  0.6343131046131237  0.4409357961759650
  0.3165902433952555  0.5401247663282069  0.4890875305306446
  0.3205642075714872  0.3893138328188212  0.4893470760576086
  0.5428095092819805  0.4701203044595928  0.3043872080688847
  0.5663225130581400  0.5465014073179713  0.5890946018664922
  0.5700400499781914  0.3961772144672400  0.5891429779677316
  0.6563795948613937  0.4732548905663019  0.4898349971692142
  0.4480772985133078  0.4681531669261150  0.5319007920001867
  0.5333519110596534  0.5465412784754494  0.4387737429121062
  0.5370742268312954  0.3935476257840012  0.4390881032799573
  0.4108560716406610  0.4669527947203136  0.3902179047798130
  0.6055034446386176  0.6431333230783476  0.7748379882404184
  0.5825087278819423  0.6212731831659550  0.7397566811816766
 
  0.00000000E+00  0.00000000E+00  0.00000000E+00
  0.00000000E+00  0.00000000E+00  0.00000000E+00
  0.00000000E+00  0.00000000E+00  0.00000000E+00
  0.00000000E+00  0.00000000E+00  0.00000000E+00
  0.00000000E+00  0.00000000E+00  0.00000000E+00
  0.00000000E+00  0.00000000E+00  0.00000000E+00
  0.00000000E+00  0.00000000E+00  0.00000000E+00
  0.00000000E+00  0.00000000E+00  0.00000000E+00
  0.00000000E+00  0.00000000E+00  0.00000000E+00
  0.00000000E+00  0.00000000E+00  0.00000000E+00
  0.00000000E+00  0.00000000E+00  0.00000000E+00
  0.00000000E+00  0.00000000E+00  0.00000000E+00
  0.00000000E+00  0.00000000E+00  0.00000000E+00
  0.00000000E+00  0.00000000E+00  0.00000000E+00
  0.00000000E+00  0.00000000E+00  0.00000000E+00
  0.00000000E+00  0.00000000E+00  0.00000000E+00
  0.00000000E+00  0.00000000E+00  0.00000000E+00
  0.00000000E+00  0.00000000E+00  0.00000000E+00
  0.00000000E+00  0.00000000E+00  0.00000000E+00
  0.00000000E+00  0.00000000E+00  0.00000000E+00
  0.00000000E+00  0.00000000E+00  0.00000000E+00
  0.00000000E+00  0.00000000E+00  0.00000000E+00
  0.00000000E+00  0.00000000E+00  0.00000000E+00
  0.00000000E+00  0.00000000E+00  0.00000000E+00
  0.00000000E+00  0.00000000E+00  0.00000000E+00
  0.00000000E+00  0.00000000E+00  0.00000000E+00
  0.00000000E+00  0.00000000E+00  0.00000000E+00
  0.00000000E+00  0.00000000E+00  0.00000000E+00
  0.00000000E+00  0.00000000E+00  0.00000000E+00
  0.00000000E+00  0.00000000E+00  0.00000000E+00
  0.00000000E+00  0.00000000E+00  0.00000000E+00
  0.00000000E+00  0.00000000E+00  0.00000000E+00
